% Generated FlatZinc statistics:
%%%mzn-stat: paths=0
%%%mzn-stat: flatBoolVars=1339
%%%mzn-stat: flatIntVars=123
%%%mzn-stat: flatBoolConstraints=427
%%%mzn-stat: flatIntConstraints=1439
%%%mzn-stat: evaluatedReifiedConstraints=58
%%%mzn-stat: evaluatedHalfReifiedConstraints=1281
%%%mzn-stat: method="minimize"
%%%mzn-stat: flatTime=0.0996956
%%%mzn-stat-end
end = 118
carga_por_operario = [118, 0]
desbalance = 118
Job 1:  24(op:1)  25(op:1)  35(op:1)  84(op:1) 114(op:1)
Job 2:  15(op:1)  53(op:1)  75(op:1)  83(op:1)  89(op:1)
Job 3:  21(op:1)  28(op:1)  43(op:1)  65(op:1)  96(op:1)
Job 4:   0(op:1)  11(op:1)  30(op:1)  57(op:1) 109(op:1)
Job 5:   3(op:1)  45(op:1)  70(op:1)  71(op:1) 103(op:1)
Job 6:  27(op:1)  33(op:1)  48(op:1)  76(op:1) 116(op:1)
----------
%%%mzn-stat: initTime=0.00654554
%%%mzn-stat: solveTime=59.9001
%%%mzn-stat: solutions=1
%%%mzn-stat: variables=1464
%%%mzn-stat: propagators=1866
%%%mzn-stat: propagations=995898055
%%%mzn-stat: nodes=13626036
%%%mzn-stat: failures=6812990
%%%mzn-stat: restarts=0
%%%mzn-stat: peakDepth=86
%%%mzn-stat-end
%%%mzn-stat: nSolutions=1
%%%mzn-stat-end
